presolving:
(round 1, fast)       0 del vars, 0 del conss, 0 add conss, 20000 chg bounds, 0 chg sides, 0 chg coeffs, 0 upgd conss, 0 impls, 0 clqs
(round 2, fast)       0 del vars, 0 del conss, 0 add conss, 40000 chg bounds, 0 chg sides, 0 chg coeffs, 0 upgd conss, 0 impls, 0 clqs
(round 3, fast)       0 del vars, 0 del conss, 0 add conss, 40000 chg bounds, 0 chg sides, 100 chg coeffs, 0 upgd conss, 0 impls, 0 clqs
   (0.3s) running MILP presolver
   (0.3s) MILP presolver found nothing
   (0.5s) probing: 51/100 (51.0%) - 0 fixings, 0 aggregations, 0 implications, 0 bound changes
   (0.5s) probing aborted: 50/50 successive totally useless probings
   (0.5s) symmetry computation started: requiring (bin +, int -, cont +), (fixed: bin -, int +, cont -)
   (0.6s) no symmetry present
presolving (4 rounds: 4 fast, 1 medium, 1 exhaustive):
 0 deleted vars, 0 deleted constraints, 0 added constraints, 40000 tightened bounds, 0 added holes, 0 changed sides, 100 changed coefficients
 0 implications, 0 cliques
presolved problem has 20100 variables (100 bin, 0 int, 0 impl, 20000 cont) and 300 constraints
    300 constraints of type <linear>
Presolving Time: 0.50

 time | node  | left  |LP iter|LP it/n|mem/heur|mdpt |vars |cons |rows |cuts |sepa|confs|strbr|  dualbound   | primalbound  |  gap   | compl. 
t 0.6s|     1 |     0 |     0 |     - | trivial|   0 |  20k| 300 |   0 |   0 |  0 |   0 |   0 | 0.000000e+00 | 7.759296e+07 |    Inf | unknown
t 0.6s|     1 |     0 |     0 |     - | trivial|   0 |  20k| 300 |   0 |   0 |  0 |   0 |   0 | 0.000000e+00 | 3.980113e+07 |    Inf | unknown
p 0.7s|     1 |     0 |   200 |     - |   locks|   0 |  20k| 300 | 300 |   0 |  0 |   0 |   0 | 0.000000e+00 | 2.092643e+06 |    Inf | unknown
i 0.7s|     1 |     0 |   200 |     - |  oneopt|   0 |  20k| 300 | 300 |   0 |  0 |   0 |   0 | 0.000000e+00 | 1.679131e+06 |    Inf | unknown
  0.7s|     1 |     0 |   536 |     - |   114M |   0 |  20k| 300 | 300 |   0 |  0 |   0 |   0 | 1.032510e+05 | 1.679131e+06 |1526.26%| unknown
r 0.8s|     1 |     0 |   536 |     - |simplero|   0 |  20k| 300 | 300 |   0 |  0 |   0 |   0 | 1.032510e+05 | 1.656446e+06 |1504.29%| unknown
r 0.8s|     1 |     0 |   536 |     - |rounding|   0 |  20k| 300 | 300 |   0 |  0 |   0 |   0 | 1.032510e+05 | 1.656446e+06 |1504.29%| unknown
  1.0s|     1 |     0 |   841 |     - |   122M |   0 |  20k| 300 | 379 |  79 |  1 |   0 |   0 | 1.358837e+05 | 1.656446e+06 |1119.02%| unknown
r 1.0s|     1 |     0 |   841 |     - |simplero|   0 |  20k| 300 | 379 |  79 |  1 |   0 |   0 | 1.358837e+05 | 1.639121e+06 |1106.27%| unknown
  1.2s|     1 |     0 |  1146 |     - |   127M |   0 |  20k| 300 | 456 | 156 |  2 |   0 |   0 | 1.646386e+05 | 1.639121e+06 | 895.59%| unknown
  1.6s|     1 |     0 |  1532 |     - |   129M |   0 |  20k| 300 | 540 | 240 |  3 |   0 |   0 | 1.873384e+05 | 1.639121e+06 | 774.95%| unknown
  2.0s|     1 |     0 |  2029 |     - |   131M |   0 |  20k| 300 | 621 | 321 |  4 |   0 |   0 | 2.064627e+05 | 1.639121e+06 | 693.91%| unknown
  2.6s|     1 |     0 |  2607 |     - |   134M |   0 |  20k| 300 | 689 | 389 |  5 |   0 |   0 | 2.228044e+05 | 1.639121e+06 | 635.68%| unknown
  3.2s|     1 |     0 |  3128 |     - |   138M |   0 |  20k| 300 | 741 | 441 |  6 |   0 |   0 | 2.365285e+05 | 1.639121e+06 | 592.99%| unknown
  3.9s|     1 |     0 |  3737 |     - |   143M |   0 |  20k| 300 | 791 | 491 |  7 |   0 |   0 | 2.482963e+05 | 1.639121e+06 | 560.15%| unknown
 time | node  | left  |LP iter|LP it/n|mem/heur|mdpt |vars |cons |rows |cuts |sepa|confs|strbr|  dualbound   | primalbound  |  gap   | compl. 
  4.6s|     1 |     0 |  4405 |     - |   144M |   0 |  20k| 300 | 842 | 542 |  8 |   0 |   0 | 2.587673e+05 | 1.639121e+06 | 533.43%| unknown
  5.4s|     1 |     0 |  5216 |     - |   146M |   0 |  20k| 300 | 890 | 590 |  9 |   0 |   0 | 2.683671e+05 | 1.639121e+06 | 510.78%| unknown
  6.2s|     1 |     0 |  6024 |     - |   148M |   0 |  20k| 300 | 939 | 639 | 10 |   0 |   0 | 2.773671e+05 | 1.639121e+06 | 490.96%| unknown
  6.9s|     1 |     0 |  6830 |     - |   150M |   0 |  20k| 300 | 987 | 687 | 11 |   0 |   0 | 2.845451e+05 | 1.639121e+06 | 476.05%| unknown
  7.8s|     1 |     0 |  7860 |     - |   150M |   0 |  20k| 300 |1032 | 732 | 12 |   0 |   0 | 2.912759e+05 | 1.639121e+06 | 462.74%| unknown
  8.5s|     1 |     0 |  8592 |     - |   155M |   0 |  20k| 300 |1071 | 771 | 13 |   0 |   0 | 2.972818e+05 | 1.639121e+06 | 451.37%| unknown
  9.1s|     1 |     0 |  9390 |     - |   156M |   0 |  20k| 300 |1105 | 805 | 14 |   0 |   0 | 3.009333e+05 | 1.639121e+06 | 444.68%| unknown
  9.8s|     1 |     0 | 10114 |     - |   157M |   0 |  20k| 300 |1140 | 840 | 15 |   0 |   0 | 3.050836e+05 | 1.639121e+06 | 437.27%| unknown
 10.8s|     1 |     0 | 11401 |     - |   158M |   0 |  20k| 300 |1175 | 875 | 16 |   0 |   0 | 3.099033e+05 | 1.639121e+06 | 428.91%| unknown
 11.4s|     1 |     0 | 12036 |     - |   161M |   0 |  20k| 300 |1205 | 905 | 17 |   0 |   0 | 3.126843e+05 | 1.639121e+06 | 424.21%| unknown
 12.4s|     1 |     0 | 13302 |     - |   162M |   0 |  20k| 300 |1236 | 936 | 18 |   0 |   0 | 3.158833e+05 | 1.639121e+06 | 418.90%| unknown
 13.3s|     1 |     0 | 14392 |     - |   165M |   0 |  20k| 300 |1261 | 961 | 19 |   0 |   0 | 3.173942e+05 | 1.639121e+06 | 416.43%| unknown
 14.0s|     1 |     0 | 15252 |     - |   167M |   0 |  20k| 300 |1290 | 990 | 20 |   0 |   0 | 3.188315e+05 | 1.639121e+06 | 414.10%| unknown
 14.8s|     1 |     0 | 16317 |     - |   169M |   0 |  20k| 300 |1313 |1013 | 21 |   0 |   0 | 3.199524e+05 | 1.639121e+06 | 412.30%| unknown
 16.2s|     1 |     0 | 18122 |     - |   171M |   0 |  20k| 300 |1341 |1043 | 22 |   0 |   0 | 3.212355e+05 | 1.639121e+06 | 410.26%| unknown
 time | node  | left  |LP iter|LP it/n|mem/heur|mdpt |vars |cons |rows |cuts |sepa|confs|strbr|  dualbound   | primalbound  |  gap   | compl. 
 17.1s|     1 |     0 | 18943 |     - |   173M |   0 |  20k| 300 |1363 |1065 | 23 |   0 |   0 | 3.219952e+05 | 1.639121e+06 | 409.05%| unknown
 18.2s|     1 |     0 | 20318 |     - |   175M |   0 |  20k| 300 |1392 |1094 | 24 |   0 |   0 | 3.227758e+05 | 1.639121e+06 | 407.82%| unknown
r18.3s|     1 |     0 | 20318 |     - |shifting|   0 |  20k| 300 |1392 |1094 | 24 |   0 |   0 | 3.227758e+05 | 1.637951e+06 | 407.46%| unknown
 19.6s|     1 |     0 | 22027 |     - |   175M |   0 |  20k| 300 |1419 |1121 | 25 |   0 |   0 | 3.238582e+05 | 1.637951e+06 | 405.76%| unknown
 20.7s|     1 |     0 | 23106 |     - |   178M |   0 |  20k| 300 |1444 |1146 | 26 |   0 |   0 | 3.246231e+05 | 1.637951e+06 | 404.57%| unknown
 21.8s|     1 |     0 | 24312 |     - |   181M |   0 |  20k| 300 |1465 |1167 | 27 |   0 |   0 | 3.252791e+05 | 1.637951e+06 | 403.55%| unknown
 22.7s|     1 |     0 | 25136 |     - |   184M |   0 |  20k| 300 |1482 |1186 | 28 |   0 |   0 | 3.258825e+05 | 1.637951e+06 | 402.62%| unknown
 24.0s|     1 |     0 | 26420 |     - |   186M |   0 |  20k| 300 |1502 |1206 | 29 |   0 |   0 | 3.265462e+05 | 1.637951e+06 | 401.60%| unknown
 24.9s|     1 |     0 | 27591 |     - |   187M |   0 |  20k| 300 |1520 |1224 | 30 |   0 |   0 | 3.269368e+05 | 1.637951e+06 | 401.00%| unknown
 26.6s|     1 |     0 | 29730 |     - |   191M |   0 |  20k| 300 |1567 |1271 | 31 |   0 |   0 | 3.281959e+05 | 1.637951e+06 | 399.08%| unknown
 28.3s|     1 |     0 | 31806 |     - |   193M |   0 |  20k| 300 |1598 |1302 | 32 |   0 |   0 | 3.289887e+05 | 1.637951e+06 | 397.87%| unknown
 29.4s|     1 |     0 | 32950 |     - |   196M |   0 |  20k| 300 |1625 |1329 | 33 |   0 |   0 | 3.295403e+05 | 1.637951e+06 | 397.04%| unknown
 30.8s|     1 |     0 | 34458 |     - |   197M |   0 |  20k| 300 |1651 |1362 | 34 |   0 |   0 | 3.301112e+05 | 1.637951e+06 | 396.18%| unknown
 33.4s|     1 |     0 | 37142 |     - |   199M |   0 |  20k| 300 |1680 |1391 | 35 |   0 |   0 | 3.308589e+05 | 1.637951e+06 | 395.06%| unknown
 34.8s|     1 |     0 | 38654 |     - |   200M |   0 |  20k| 300 |1705 |1416 | 36 |   0 |   0 | 3.313729e+05 | 1.637951e+06 | 394.29%| unknown
 time | node  | left  |LP iter|LP it/n|mem/heur|mdpt |vars |cons |rows |cuts |sepa|confs|strbr|  dualbound   | primalbound  |  gap   | compl. 
 36.4s|     1 |     0 | 40119 |     - |   203M |   0 |  20k| 300 |1726 |1437 | 37 |   0 |   0 | 3.317257e+05 | 1.637951e+06 | 393.77%| unknown
 37.8s|     1 |     0 | 41230 |     - |   204M |   0 |  20k| 300 |1747 |1458 | 38 |   0 |   0 | 3.319796e+05 | 1.637951e+06 | 393.39%| unknown
 40.0s|     1 |     0 | 43952 |     - |   207M |   0 |  20k| 300 |1802 |1513 | 39 |   0 |   0 | 3.328007e+05 | 1.637951e+06 | 392.17%| unknown
 42.6s|     1 |     0 | 47120 |     - |   213M |   0 |  20k| 300 |1843 |1563 | 40 |   0 |   0 | 3.336114e+05 | 1.637951e+06 | 390.98%| unknown
 46.1s|     1 |     0 | 50440 |     - |   213M |   0 |  20k| 300 |1891 |1611 | 41 |   0 |   0 | 3.344609e+05 | 1.637951e+06 | 389.73%| unknown
 48.2s|     1 |     0 | 52145 |     - |   214M |   0 |  20k| 300 |1917 |1637 | 42 |   0 |   0 | 3.347767e+05 | 1.637951e+06 | 389.27%| unknown
 51.4s|     1 |     0 | 55460 |     - |   218M |   0 |  20k| 300 |1948 |1668 | 43 |   0 |   0 | 3.352882e+05 | 1.637951e+06 | 388.52%| unknown
 53.8s|     1 |     0 | 57782 |     - |   219M |   0 |  20k| 300 |1968 |1688 | 44 |   0 |   0 | 3.356228e+05 | 1.637951e+06 | 388.03%| unknown
 58.8s|     1 |     0 | 63770 |     - |   220M |   0 |  20k| 300 |2046 |1766 | 45 |   0 |   0 | 3.366043e+05 | 1.637951e+06 | 386.61%| unknown
 61.6s|     1 |     0 | 66354 |     - |   222M |   0 |  20k| 300 |2063 |1807 | 46 |   0 |   0 | 3.369878e+05 | 1.637951e+06 | 386.06%| unknown
 64.6s|     1 |     0 | 69564 |     - |   224M |   0 |  20k| 300 |2096 |1840 | 47 |   0 |   0 | 3.372932e+05 | 1.637951e+06 | 385.62%| unknown
 66.4s|     1 |     0 | 70304 |     - |   224M |   0 |  20k| 300 |2111 |1855 | 48 |   0 |   0 | 3.373630e+05 | 1.637951e+06 | 385.52%| unknown
 69.0s|     1 |     0 | 72549 |     - |   228M |   0 |  20k| 300 |2161 |1905 | 49 |   0 |   0 | 3.375558e+05 | 1.637951e+06 | 385.24%| unknown
 71.6s|     1 |     0 | 74926 |     - |   229M |   0 |  20k| 300 |2195 |1939 | 50 |   0 |   0 | 3.377364e+05 | 1.637951e+06 | 384.98%| unknown
 72.8s|     1 |     0 | 75159 |     - |   230M |   0 |  20k| 300 |2223 |1967 | 51 |   0 |   0 | 3.377925e+05 | 1.637951e+06 | 384.90%| unknown
 time | node  | left  |LP iter|LP it/n|mem/heur|mdpt |vars |cons |rows |cuts |sepa|confs|strbr|  dualbound   | primalbound  |  gap   | compl. 
d72.8s|     1 |     0 | 75159 |     - |farkasdi|   0 |  20k| 300 |2223 |   0 | 53 |   0 |   0 | 3.377925e+05 | 3.377925e+05 |   0.00%| unknown
 72.8s|     1 |     0 | 75159 |     - |   230M |   0 |  20k| 300 |2223 |1967 | 53 |   0 |   0 | 3.377925e+05 | 3.377925e+05 |   0.00%| unknown

SCIP Status        : problem is solved [optimal solution found]
Solving Time (sec) : 72.83
Solving Nodes      : 1
Primal Bound       : +3.37792488660097e+05 (64 solutions)
Dual Bound         : +3.37792488660097e+05
Gap                : 0.00 %
Solve Status: optimal
Solve Time: 72.85 seconds
